<?xml version = "1.0" encoding="UTF-8" standalone="yes"?>
<CPLEXSolution version="1.2">
 <header
   problemName="inst_1"
   solutionName="incumbent"
   solutionIndex="-1"
   objectiveValue="0"
   solutionTypeValue="3"
   solutionTypeString="primal"
   solutionStatusValue="101"
   solutionStatusString="integer optimal solution"
   solutionMethodString="mip"
   primalFeasible="1"
   dualFeasible="1"
   MIPNodes="0"
   MIPIterations="0"
   writeLevel="1"/>
 <quality
   epInt="1.0000000000000001e-05"
   epRHS="9.9999999999999995e-07"
   maxIntInfeas="0"
   maxPrimalInfeas="0"
   maxX="0"
   maxSlack="593"/>
 <linearConstraints>
  <constraint name="c0" index="0" slack="299"/>
  <constraint name="c1" index="1" slack="114"/>
  <constraint name="c2" index="2" slack="40"/>
  <constraint name="c3" index="3" slack="230"/>
  <constraint name="c4" index="4" slack="138"/>
  <constraint name="c5" index="5" slack="554"/>
  <constraint name="c6" index="6" slack="484"/>
  <constraint name="c7" index="7" slack="131"/>
  <constraint name="c8" index="8" slack="68"/>
  <constraint name="c9" index="9" slack="593"/>
  <constraint name="c10" index="10" slack="397"/>
  <constraint name="c11" index="11" slack="544"/>
  <constraint name="c12" index="12" slack="489"/>
  <constraint name="c13" index="13" slack="10"/>
  <constraint name="c14" index="14" slack="151"/>
 </linearConstraints>
 <variables>
  <variable name="x0" index="0" value="0"/>
  <variable name="x1" index="1" value="0"/>
  <variable name="x2" index="2" value="0"/>
  <variable name="x3" index="3" value="0"/>
  <variable name="x4" index="4" value="0"/>
  <variable name="x5" index="5" value="0"/>
  <variable name="x6" index="6" value="0"/>
 </variables>
 <objectiveValues>
  <objective index="0" name="" value="0"/>
 </objectiveValues>
</CPLEXSolution>
